[2026-03-24T00:35:03.997Z] Pipeline "set_set_set_s009_g010" → 2026_03_24_00_35_03_set_set_set_s009_g010_max.sol
Set parameter WLSAccessID
Set parameter WLSSecret
Set parameter LicenseID to value 2792458
Set parameter LogFile to value "gurobi.log"
Using license file /root/gurobi.lic
Academic license 2792458 - for non-commercial use only - registered to an___@studenti.unipg.it

Gurobi Optimizer version 13.0.1 build v13.0.1rc0 (linux64 - "Ubuntu 24.04.4 LTS")
Copyright (c) 2026, Gurobi Optimization, LLC

Warning: Duplicate section found (read 'binary') - Is a variable name equal to an LP file format keyword?
Warning: Duplicate section found (read 'binary') - Is a variable name equal to an LP file format keyword?
Warning: Duplicate section found (read 'binary') - Is a variable name equal to an LP file format keyword?
Warning: Duplicate section found (read 'binary') - Is a variable name equal to an LP file format keyword?
Warning: Duplicate section found (read 'binary') - Is a variable name equal to an LP file format keyword?
Warning: Duplicate section found (read 'binary') - Is a variable name equal to an LP file format keyword?
Warning: Duplicate section found (read 'binary') - Is a variable name equal to an LP file format keyword?
Warning: Duplicate section found (read 'binary') - Is a variable name equal to an LP file format keyword?
Warning: Duplicate section found (read 'binary') - Is a variable name equal to an LP file format keyword?
Warning: Duplicate section found (read 'binary') - Is a variable name equal to an LP file format keyword?
Warning: Further warnings of this type will be omitted.
Read LP format model from file /root/bgw/data/uploads/2026_03_24_00_35_03_set_set_set_s009_g010_max.lp
Reading time = 0.00 seconds
: 1022 rows, 158 columns, 2984 nonzeros

Using Gurobi shared library /opt/gurobi1301/linux64/lib/libgurobi.so.13.0.1

CPU model: AMD EPYC-Genoa Processor, instruction set [SSE2|AVX|AVX2|AVX512]
Thread count: 16 physical cores, 16 logical processors, using up to 16 threads

Academic license 2792458 - for non-commercial use only - registered to an___@studenti.unipg.it
Optimize a model with 1022 rows, 158 columns and 2984 nonzeros (Max)
Model fingerprint: 0x187b8e50
Model has 16 linear objective coefficients
Variable types: 30 continuous, 128 integer (128 binary)
Coefficient statistics:
  Matrix range     [1e+00, 2e+01]
  Objective range  [1e+00, 1e+00]
  Bounds range     [1e+00, 1e+00]
  RHS range        [1e+00, 2e+01]

Found heuristic solution: objective 16.0000000
Presolve removed 262 rows and 48 columns
Presolve time: 0.00s
Presolved: 760 rows, 110 columns, 2346 nonzeros
Variable types: 0 continuous, 110 integer (104 binary)
Found heuristic solution: objective 27.0000000

Root relaxation: objective 7.600000e+01, 60 iterations, 0.00 seconds (0.00 work units)

    Nodes    |    Current Node    |     Objective Bounds      |     Work
 Expl Unexpl |  Obj  Depth IntInf | Incumbent    BestBd   Gap | It/Node Time

     0     0   76.00000    0   14   27.00000   76.00000   181%     -    0s
H    0     0                      29.0000000   76.00000   162%     -    0s
H    0     0                      37.0000000   76.00000   105%     -    0s
H    0     0                      39.0000000   76.00000  94.9%     -    0s
     0     0   76.00000    0   20   39.00000   76.00000  94.9%     -    0s
H    0     0                      40.0000000   76.00000  90.0%     -    0s
     0     0   76.00000    0   20   40.00000   76.00000  90.0%     -    0s
     0     0   76.00000    0   14   40.00000   76.00000  90.0%     -    0s
     0     0   76.00000    0   20   40.00000   76.00000  90.0%     -    0s
     0     0   76.00000    0   14   40.00000   76.00000  90.0%     -    0s
     0     0   76.00000    0   19   40.00000   76.00000  90.0%     -    0s
     0     0   76.00000    0   14   40.00000   76.00000  90.0%     -    0s
     0     0   73.00000    0   20   40.00000   73.00000  82.5%     -    0s
     0     0   73.00000    0   19   40.00000   73.00000  82.5%     -    0s
     0     0   72.63889    0   13   40.00000   72.63889  81.6%     -    0s
     0     0   72.16667    0   19   40.00000   72.16667  80.4%     -    0s
     0     0   72.16667    0   14   40.00000   72.16667  80.4%     -    0s
     0     0   71.00000    0   14   40.00000   71.00000  77.5%     -    0s
     0     0   71.00000    0   14   40.00000   71.00000  77.5%     -    0s
     0     2   71.00000    0   14   40.00000   71.00000  77.5%     -    0s

Cutting planes:
  Cover: 11
  Inf proof: 38

Explored 3603 nodes (85048 simplex iterations) in 0.40 seconds (0.43 work units)
Thread count was 16 (of 16 available processors)

Solution count 6: 40 39 37 ... 16

Optimal solution found (tolerance 1.00e-04)
Best objective 4.000000000000e+01, best bound 4.000000000000e+01, gap 0.0000%

Wrote result file '/root/bgw/data/results/2026_03_24_00_35_03_set_set_set_s009_g010_max.sol'

